true true true
presolving:
presolving (0 rounds: 0 fast, 0 medium, 0 exhaustive):
 0 deleted vars, 0 deleted constraints, 0 added constraints, 0 tightened bounds, 0 added holes, 0 changed sides, 0 changed coefficients
 0 implications, 0 cliques
presolved problem has 46 variables (46 bin, 0 int, 0 impl, 0 cont) and 36 constraints
     36 constraints of type <linear>
transformed objective value is always integral (scale: 1)
Presolving Time: 0.00

 time | node  | left  |LP iter|LP it/n|mem/heur|mdpt |vars |cons |rows |cuts |sepa|confs|strbr|  dualbound   | primalbound  |  gap   | compl. 
p 0.0s|     1 |     0 |     0 |     - |shiftand|   0 |  46 |  36 |  36 |   0 |  0 |   0 |   0 |      --      | 1.000000e+01 |    Inf | unknown
 time | node  | left  |LP iter|LP it/n|mem/heur|mdpt |vars |cons |rows |cuts |sepa|confs|strbr|  dualbound   | primalbound  |  gap   | compl. 
  0.0s|     1 |     0 |    38 |     - |  1476k |   0 | 277 |  36 |  36 |   0 |  0 |   0 |   0 | 1.000000e+00 | 1.000000e+01 | 900.00%| unknown
 time | node  | left  |LP iter|LP it/n|mem/heur|mdpt |vars |cons |rows |cuts |sepa|confs|strbr|  dualbound   | primalbound  |  gap   | compl. 
  0.1s|     1 |     0 |   186 |     - |  2793k |   0 | 759 |  36 |  36 |   0 |  0 |   0 |   0 | 9.000000e+00 | 1.000000e+01 |  11.11%| unknown
 time | node  | left  |LP iter|LP it/n|mem/heur|mdpt |vars |cons |rows |cuts |sepa|confs|strbr|  dualbound   | primalbound  |  gap   | compl. 
  0.2s|     1 |     2 |   457 |     - |  2961k |   0 | 759 |  36 |  36 |   0 |  1 |   0 |   0 | 9.000000e+00 | 1.000000e+01 |  11.11%| unknown
 time | node  | left  |LP iter|LP it/n|mem/heur|mdpt |vars |cons |rows |cuts |sepa|confs|strbr|  dualbound   | primalbound  |  gap   | compl. 
  0.2s|     2 |     3 |   466 |   9.0 |  3011k |   1 | 759 |  36 |  36 |   0 |  1 |   0 |   0 | 9.000000e+00 | 1.000000e+01 |  11.11%| unknown
 time | node  | left  |LP iter|LP it/n|mem/heur|mdpt |vars |cons |rows |cuts |sepa|confs|strbr|  dualbound   | primalbound  |  gap   | compl. 
  0.2s|     3 |     4 |   470 |   6.5 |  3130k |   1 | 759 |  36 |  36 |   0 |  1 |   0 |   0 | 9.000000e+00 | 1.000000e+01 |  11.11%| unknown
 time | node  | left  |LP iter|LP it/n|mem/heur|mdpt |vars |cons |rows |cuts |sepa|confs|strbr|  dualbound   | primalbound  |  gap   | compl. 
  0.2s|     4 |     5 |   486 |   9.7 |  3142k |   2 | 759 |  36 |  36 |   0 |  1 |   0 |   0 | 9.000000e+00 | 1.000000e+01 |  11.11%| unknown
 time | node  | left  |LP iter|LP it/n|mem/heur|mdpt |vars |cons |rows |cuts |sepa|confs|strbr|  dualbound   | primalbound  |  gap   | compl. 
  0.2s|     5 |     6 |   493 |   9.0 |  3144k |   2 | 759 |  36 |  36 |   0 |  1 |   0 |   0 | 9.000000e+00 | 1.000000e+01 |  11.11%| unknown
 time | node  | left  |LP iter|LP it/n|mem/heur|mdpt |vars |cons |rows |cuts |sepa|confs|strbr|  dualbound   | primalbound  |  gap   | compl. 
  0.3s|     6 |     7 |   498 |   8.2 |  3147k |   3 | 759 |  36 |  36 |   0 |  1 |   0 |   0 | 9.000000e+00 | 1.000000e+01 |  11.11%| unknown
 time | node  | left  |LP iter|LP it/n|mem/heur|mdpt |vars |cons |rows |cuts |sepa|confs|strbr|  dualbound   | primalbound  |  gap   | compl. 
  0.3s|     7 |     8 |   502 |   7.5 |  3149k |   4 | 759 |  36 |  36 |   0 |  1 |   0 |   0 | 9.000000e+00 | 1.000000e+01 |  11.11%| unknown
 time | node  | left  |LP iter|LP it/n|mem/heur|mdpt |vars |cons |rows |cuts |sepa|confs|strbr|  dualbound   | primalbound  |  gap   | compl. 
  0.3s|     8 |     9 |   626 |  24.1 |  3359k |   4 | 759 |  36 |  36 |   0 |  1 |   0 |   0 | 9.000000e+00 | 1.000000e+01 |  11.11%| unknown
 time | node  | left  |LP iter|LP it/n|mem/heur|mdpt |vars |cons |rows |cuts |sepa|confs|strbr|  dualbound   | primalbound  |  gap   | compl. 
  0.4s|     9 |    10 |   634 |  22.1 |  3370k |   4 | 759 |  36 |  36 |   0 |  1 |   0 |   0 | 9.000000e+00 | 1.000000e+01 |  11.11%| unknown
 time | node  | left  |LP iter|LP it/n|mem/heur|mdpt |vars |cons |rows |cuts |sepa|confs|strbr|  dualbound   | primalbound  |  gap   | compl. 
  0.4s|    10 |    11 |   667 |  23.3 |  3399k |   4 | 797 |  36 |  36 |   0 |  1 |   0 |   0 | 9.000000e+00 | 1.000000e+01 |  11.11%| unknown
 time | node  | left  |LP iter|LP it/n|mem/heur|mdpt |vars |cons |rows |cuts |sepa|confs|strbr|  dualbound   | primalbound  |  gap   | compl. 
  0.5s|    11 |    12 |   677 |  22.0 |  3403k |   5 | 797 |  36 |  36 |   0 |  1 |   0 |   0 | 9.000000e+00 | 1.000000e+01 |  11.11%| unknown
 time | node  | left  |LP iter|LP it/n|mem/heur|mdpt |vars |cons |rows |cuts |sepa|confs|strbr|  dualbound   | primalbound  |  gap   | compl. 
  0.5s|    12 |    11 |   721 |  24.0 |  3506k |   5 | 835 |  36 |  36 |   0 |  0 |   0 |   0 | 9.000000e+00 | 1.000000e+01 |  11.11%| unknown
 time | node  | left  |LP iter|LP it/n|mem/heur|mdpt |vars |cons |rows |cuts |sepa|confs|strbr|  dualbound   | primalbound  |  gap   | compl. 
  0.6s|    13 |    12 |   732 |  22.9 |  3533k |   5 | 835 |  36 |  36 |   0 |  1 |   0 |   0 | 9.000000e+00 | 1.000000e+01 |  11.11%|   1.15%
 time | node  | left  |LP iter|LP it/n|mem/heur|mdpt |vars |cons |rows |cuts |sepa|confs|strbr|  dualbound   | primalbound  |  gap   | compl. 
  0.6s|    14 |    13 |   737 |  21.5 |  3540k |   5 | 835 |  36 |  36 |   0 |  1 |   0 |   0 | 9.000000e+00 | 1.000000e+01 |  11.11%|   1.15%
 time | node  | left  |LP iter|LP it/n|mem/heur|mdpt |vars |cons |rows |cuts |sepa|confs|strbr|  dualbound   | primalbound  |  gap   | compl. 
  0.7s|    15 |    14 |   752 |  21.1 |  3541k |   5 | 835 |  36 |  36 |   0 |  1 |   0 |   0 | 9.000000e+00 | 1.000000e+01 |  11.11%|   1.15%
 time | node  | left  |LP iter|LP it/n|mem/heur|mdpt |vars |cons |rows |cuts |sepa|confs|strbr|  dualbound   | primalbound  |  gap   | compl. 
r 0.7s|    16 |     0 |   785 |  21.9 |simplero|   6 | 885 |  36 |  36 |   0 |  0 |   0 |   0 | 9.000000e+00 | 9.000000e+00 |   0.00%|  99.43%

SCIP Status        : problem is solved [optimal solution found]
Solving Time (sec) : 0.75
Solving Nodes      : 16
Primal Bound       : +9.00000000000000e+00 (2 solutions)
Dual Bound         : +9.00000000000000e+00
Gap                : 0.00 %
Running with parallel: True bidir: True symbreak: True
Number of Nodes:  36
47.37011316872428% holds
starting cheapest insertion heuristic
Heuristic without TSP improvement:  10
Heuristic without TSP improvement time:  0.1
Heuristic Sol:  10
Heuristic total time:  0.1
[[1, 22, 10, 4], [14, 9, 0, 2], [23, 6, 28, 35], [16, 21, 12], [34, 27], [33, 5, 31, 30, 13, 20, 8], [32, 25, 19], [29, 7, 17, 11], [26, 3, 15], [24, 18]]
Instance path:  /home/htc/mghannam/SCRATCH/lccp-rust/data/at84_ftv35.npcc
Timelimit:  7200
Heuristic without TSP improvement:  10
Heuristic without TSP improvement time:  0.1
Heuristic Sol:  10
Heuristic total time:  0.2
at 1 zero_duals: 26
at1, LP obj: 10.0 n_added_paths: 231
at 1 zero_duals: 16
at1, LP obj: 10.0 n_added_paths: 81
at 1 zero_duals: 19
at1, LP obj: 10.0 n_added_paths: 244
at 1 zero_duals: 4
at1, LP obj: 9.25925925925926 n_added_paths: 120
at 1 zero_duals: 7
at1, LP obj: 8.65 n_added_paths: 34
at 1 zero_duals: 6
Switching to elementary pricing
at1, LP obj: 8.583333333333334 n_added_paths: 3
updated lowerbound from 1.0 to 9
Gap too small = 0, stopping pricing with lb = 9
Gap too small = 0, stopping pricing with lb = 9
Gap too small = 0, stopping pricing with lb = 9
Gap too small = 0, stopping pricing with lb = 9
Gap too small = 0, stopping pricing with lb = 9
Gap too small = 0, stopping pricing with lb = 9
Gap too small = 0, stopping pricing with lb = 9
Gap too small = 0, stopping pricing with lb = 9
Gap too small = 0, stopping pricing with lb = 9
at 18 zero_duals: 8
Switching to elementary pricing
at18, LP obj: 9.083333333333334 n_added_paths: 38
Gap too small = 0, stopping pricing with lb = 9
Gap too small = 0, stopping pricing with lb = 9
at 21 zero_duals: 11
Switching to elementary pricing
at21, LP obj: 9.5 n_added_paths: 24
at 21 zero_duals: 4
at21, LP obj: 9.421052631578949 n_added_paths: 14
at 21 zero_duals: 6
Switching to elementary pricing
at21, LP obj: 9.4 n_added_paths: 0
updated lowerbound from 9.0 to 10
Gap too small = 0, stopping pricing with lb = 9
Gap too small = 0, stopping pricing with lb = 9
Gap too small = 0, stopping pricing with lb = 9
at 28 zero_duals: 7
Switching to elementary pricing
at28, LP obj: 9.26 n_added_paths: 50
Gap too small = 0, stopping pricing with lb = 9
Best solution found:
t_[24, 18, 24] 1.0 1.0
checking cycle [24, 18, 24]
[24, 18, 24] 240 226
[32, 19, 25, 6, 32] 1.0 1.0
checking cycle [32, 19, 25, 6, 32]
[32, 19, 25, 6, 32] 202 177
[34, 27, 21, 34] 1.0 1.0
checking cycle [34, 27, 21, 34]
[34, 27, 21, 34] 193 126
[29, 17, 11, 10, 29] 1.0 1.0
checking cycle [29, 17, 11, 10, 29]
[29, 17, 11, 10, 29] 217 146
[14, 9, 5, 0, 2, 14] 1.0 1.0
checking cycle [14, 9, 5, 0, 2, 14]
[14, 9, 5, 0, 2, 14] 315 302
[22, 15, 4, 1, 22] 1.0 1.0
checking cycle [22, 15, 4, 1, 22]
[22, 15, 4, 1, 22] 241 229
[33, 7, 23, 31, 30, 33] 1.0 1.0
checking cycle [33, 7, 23, 31, 30, 33]
[33, 7, 23, 31, 30, 33] 199 199
[35, 12, 28, 16, 35] 1.0 1.0
checking cycle [35, 12, 28, 16, 35]
[35, 12, 28, 16, 35] 185 151
[26, 8, 13, 20, 3, 26] 1.0 1.0
checking cycle [26, 8, 13, 20, 3, 26]
[26, 8, 13, 20, 3, 26] 239 236
